2 100 727 105
0 40.0 50.0 0.0 0.0 0 1236
2 45.0 68.0 90.0 10.0 0 1127 1 5
3 45.0 70.0 90.0 30.0 0 1125 2 5
4 42.0 66.0 90.0 10.0 0 1129 3 5
5 42.0 68.0 90.0 10.0 727 782 4 5
6 42.0 65.0 90.0 10.0 0 1130 5 5
7 40.0 69.0 90.0 20.0 621 702 6 10
8 40.0 66.0 90.0 20.0 0 1130 7 10
9 38.0 68.0 90.0 20.0 255 324 8 10
10 38.0 70.0 90.0 10.0 534 605 9 10
11 35.0 66.0 90.0 10.0 357 410 10 10
12 35.0 69.0 90.0 10.0 448 505 11 15
13 25.0 85.0 90.0 20.0 0 1107 12 15
14 22.0 75.0 90.0 30.0 30 92 13 15
15 22.0 85.0 90.0 10.0 0 1106 14 15
16 20.0 80.0 90.0 40.0 384 429 15 15
17 20.0 85.0 90.0 40.0 0 1105 16 5
18 18.0 75.0 90.0 20.0 99 148 17 5
19 15.0 75.0 90.0 20.0 0 1110 18 5
20 15.0 80.0 90.0 10.0 0 1106 19 5
21 30.0 50.0 90.0 10.0 0 1136 20 5
22 30.0 52.0 90.0 20.0 0 1135 21 10
23 28.0 52.0 90.0 20.0 812 883 22 10
24 28.0 55.0 90.0 10.0 732 777 23 10
25 25.0 50.0 90.0 10.0 0 1131 24 10
26 25.0 52.0 90.0 40.0 169 224 25 10
27 25.0 55.0 90.0 10.0 0 1130 26 15
28 23.0 52.0 90.0 10.0 261 316 27 15
29 23.0 55.0 90.0 20.0 0 1128 28 15
30 20.0 50.0 90.0 10.0 0 1126 29 15
31 20.0 55.0 90.0 10.0 449 504 30 15
32 10.0 35.0 90.0 20.0 0 1112 31 5
33 10.0 40.0 90.0 30.0 0 1114 32 5
34 8.0 40.0 90.0 40.0 87 158 33 5
35 8.0 45.0 90.0 20.0 0 1113 34 5
36 5.0 35.0 90.0 10.0 283 344 35 5
37 5.0 45.0 90.0 10.0 665 716 36 10
38 2.0 40.0 90.0 20.0 0 1106 37 10
39 0.0 40.0 90.0 30.0 479 522 38 10
40 0.0 45.0 90.0 20.0 567 624 39 10
41 35.0 30.0 90.0 10.0 264 321 40 10
42 35.0 32.0 90.0 10.0 166 235 41 15
43 33.0 32.0 90.0 20.0 68 149 42 15
44 33.0 35.0 90.0 10.0 0 1129 43 15
45 32.0 30.0 90.0 10.0 359 412 44 15
46 30.0 30.0 90.0 10.0 541 600 45 15
47 30.0 32.0 90.0 30.0 0 1125 46 5
48 30.0 35.0 90.0 10.0 0 1127 47 5
49 28.0 30.0 90.0 10.0 0 1122 48 5
50 28.0 35.0 90.0 10.0 1001 1066 49 5
51 26.0 32.0 90.0 10.0 0 1123 50 5
52 25.0 30.0 90.0 10.0 0 1121 51 10
53 25.0 35.0 90.0 10.0 0 1124 52 10
54 44.0 5.0 90.0 20.0 286 347 53 10
55 42.0 10.0 90.0 40.0 0 1105 54 10
56 42.0 15.0 90.0 10.0 95 158 55 10
57 40.0 5.0 90.0 30.0 385 436 56 15
58 40.0 15.0 90.0 40.0 0 1111 57 15
59 38.0 5.0 90.0 30.0 471 534 58 15
60 38.0 15.0 90.0 10.0 0 1110 59 15
61 35.0 5.0 90.0 20.0 0 1100 60 15
62 50.0 30.0 90.0 10.0 0 1123 61 5
63 50.0 35.0 90.0 20.0 262 317 62 5
64 50.0 40.0 90.0 50.0 0 1131 63 5
65 48.0 30.0 90.0 10.0 632 693 64 5
66 48.0 40.0 90.0 10.0 76 129 65 5
67 47.0 35.0 90.0 10.0 826 875 66 10
68 47.0 40.0 90.0 10.0 12 77 67 10
69 45.0 30.0 90.0 10.0 734 777 68 10
70 45.0 35.0 90.0 10.0 916 969 69 10
71 95.0 30.0 90.0 30.0 387 456 70 10
72 95.0 35.0 90.0 20.0 0 1088 71 15
73 53.0 30.0 90.0 10.0 0 1122 72 15
74 92.0 30.0 90.0 10.0 0 1090 73 15
75 53.0 35.0 90.0 50.0 353 412 74 15
76 45.0 65.0 90.0 20.0 0 1130 75 15
77 90.0 35.0 90.0 10.0 203 260 76 5
78 88.0 30.0 90.0 10.0 574 643 77 5
79 88.0 35.0 90.0 20.0 109 170 78 5
80 87.0 30.0 90.0 10.0 668 731 79 5
81 85.0 25.0 90.0 10.0 769 820 80 5
82 85.0 35.0 90.0 30.0 0 1098 81 10
83 75.0 55.0 90.0 20.0 0 1110 82 10
84 72.0 55.0 90.0 10.0 0 1113 83 10
85 70.0 58.0 90.0 20.0 458 523 84 10
86 68.0 60.0 90.0 30.0 0 1116 85 10
87 66.0 55.0 90.0 10.0 0 1119 86 15
88 65.0 55.0 90.0 20.0 85 144 87 15
89 65.0 60.0 90.0 30.0 645 708 88 15
90 63.0 58.0 90.0 10.0 0 1121 89 15
91 60.0 55.0 90.0 10.0 0 1125 90 15
92 60.0 60.0 90.0 10.0 0 1123 91 5
93 67.0 85.0 90.0 20.0 368 441 92 5
94 65.0 85.0 90.0 40.0 475 518 93 5
95 65.0 82.0 90.0 10.0 0 1105 94 5
96 62.0 80.0 90.0 30.0 0 1108 95 5
97 60.0 80.0 90.0 10.0 0 1109 96 10
98 60.0 85.0 90.0 30.0 0 1105 97 10
99 58.0 75.0 90.0 20.0 0 1115 98 10
100 55.0 80.0 90.0 10.0 743 820 99 10
101 55.0 85.0 90.0 20.0 647 726 100 10